archive/demo_outputs/rsa_demo_benchmark_output/64/certs/0005.assert.smt2
; benchmark generated from python API
(set-info :status unknown)
(declare-fun p () Int)
(declare-fun q () Int)
(declare-fun n () Int)
(assert
 (= p 2308659299))
(assert
 (= q 3782692597))
(assert
 (= n 8732948439322509503))
(assert
 (let ((?x31 (* p q)))
 (= ?x31 n)))
(assert
 (> p 1))
(assert
 (> q 1))
(check-sat)
